c File: flat50_3_0.col
c
c SOURCE: Joseph Culberson (joe@cs.ualberta.ca)
c DESCRIPTION: Quasi-random coloring problem
c              generated with flatness = 0
c                             probability = 0.139
c                             known coloring = 3
c                             random seed = 1030
c              Creation Date:  Tue Jun  9 11:59:30 1998
c Maximum degree = 8 Minimum degree = 1
c p edge 50 115
c cnf created by edge2cnf
p cnf 150 545
-1 -2 0
-1 -3 0
-2 -3 0
1 2 3 0
-4 -5 0
-4 -6 0
-5 -6 0
4 5 6 0
-7 -8 0
-7 -9 0
-8 -9 0
7 8 9 0
-10 -11 0
-10 -12 0
-11 -12 0
10 11 12 0
-13 -14 0
-13 -15 0
-14 -15 0
13 14 15 0
-16 -17 0
-16 -18 0
-17 -18 0
16 17 18 0
-19 -20 0
-19 -21 0
-20 -21 0
19 20 21 0
-22 -23 0
-22 -24 0
-23 -24 0
22 23 24 0
-25 -26 0
-25 -27 0
-26 -27 0
25 26 27 0
-28 -29 0
-28 -30 0
-29 -30 0
28 29 30 0
-31 -32 0
-31 -33 0
-32 -33 0
31 32 33 0
-34 -35 0
-34 -36 0
-35 -36 0
34 35 36 0
-37 -38 0
-37 -39 0
-38 -39 0
37 38 39 0
-40 -41 0
-40 -42 0
-41 -42 0
40 41 42 0
-43 -44 0
-43 -45 0
-44 -45 0
43 44 45 0
-46 -47 0
-46 -48 0
-47 -48 0
46 47 48 0
-49 -50 0
-49 -51 0
-50 -51 0
49 50 51 0
-52 -53 0
-52 -54 0
-53 -54 0
52 53 54 0
-55 -56 0
-55 -57 0
-56 -57 0
55 56 57 0
-58 -59 0
-58 -60 0
-59 -60 0
58 59 60 0
-61 -62 0
-61 -63 0
-62 -63 0
61 62 63 0
-64 -65 0
-64 -66 0
-65 -66 0
64 65 66 0
-67 -68 0
-67 -69 0
-68 -69 0
67 68 69 0
-70 -71 0
-70 -72 0
-71 -72 0
70 71 72 0
-73 -74 0
-73 -75 0
-74 -75 0
73 74 75 0
-76 -77 0
-76 -78 0
-77 -78 0
76 77 78 0
-79 -80 0
-79 -81 0
-80 -81 0
79 80 81 0
-82 -83 0
-82 -84 0
-83 -84 0
82 83 84 0
-85 -86 0
-85 -87 0
-86 -87 0
85 86 87 0
-88 -89 0
-88 -90 0
-89 -90 0
88 89 90 0
-91 -92 0
-91 -93 0
-92 -93 0
91 92 93 0
-94 -95 0
-94 -96 0
-95 -96 0
94 95 96 0
-97 -98 0
-97 -99 0
-98 -99 0
97 98 99 0
-100 -101 0
-100 -102 0
-101 -102 0
100 101 102 0
-103 -104 0
-103 -105 0
-104 -105 0
103 104 105 0
-106 -107 0
-106 -108 0
-107 -108 0
106 107 108 0
-109 -110 0
-109 -111 0
-110 -111 0
109 110 111 0
-112 -113 0
-112 -114 0
-113 -114 0
112 113 114 0
-115 -116 0
-115 -117 0
-116 -117 0
115 116 117 0
-118 -119 0
-118 -120 0
-119 -120 0
118 119 120 0
-121 -122 0
-121 -123 0
-122 -123 0
121 122 123 0
-124 -125 0
-124 -126 0
-125 -126 0
124 125 126 0
-127 -128 0
-127 -129 0
-128 -129 0
127 128 129 0
-130 -131 0
-130 -132 0
-131 -132 0
130 131 132 0
-133 -134 0
-133 -135 0
-134 -135 0
133 134 135 0
-136 -137 0
-136 -138 0
-137 -138 0
136 137 138 0
-139 -140 0
-139 -141 0
-140 -141 0
139 140 141 0
-142 -143 0
-142 -144 0
-143 -144 0
142 143 144 0
-145 -146 0
-145 -147 0
-146 -147 0
145 146 147 0
-148 -149 0
-148 -150 0
-149 -150 0
148 149 150 0
-97 -1 0
-98 -2 0
-99 -3 0
-112 -1 0
-113 -2 0
-114 -3 0
-136 -1 0
-137 -2 0
-138 -3 0
-58 -4 0
-59 -5 0
-60 -6 0
-61 -4 0
-62 -5 0
-63 -6 0
-76 -4 0
-77 -5 0
-78 -6 0
-112 -4 0
-113 -5 0
-114 -6 0
-127 -4 0
-128 -5 0
-129 -6 0
-55 -7 0
-56 -8 0
-57 -9 0
-64 -7 0
-65 -8 0
-66 -9 0
-112 -7 0
-113 -8 0
-114 -9 0
-133 -7 0
-134 -8 0
-135 -9 0
-79 -10 0
-80 -11 0
-81 -12 0
-145 -10 0
-146 -11 0
-147 -12 0
-91 -13 0
-92 -14 0
-93 -15 0
-109 -13 0
-110 -14 0
-111 -15 0
-112 -13 0
-113 -14 0
-114 -15 0
-139 -13 0
-140 -14 0
-141 -15 0
-142 -13 0
-143 -14 0
-144 -15 0
-55 -16 0
-56 -17 0
-57 -18 0
-79 -16 0
-80 -17 0
-81 -18 0
-100 -16 0
-101 -17 0
-102 -18 0
-121 -16 0
-122 -17 0
-123 -18 0
-127 -16 0
-128 -17 0
-129 -18 0
-148 -16 0
-149 -17 0
-150 -18 0
-79 -19 0
-80 -20 0
-81 -21 0
-100 -19 0
-101 -20 0
-102 -21 0
-103 -19 0
-104 -20 0
-105 -21 0
-103 -22 0
-104 -23 0
-105 -24 0
-109 -22 0
-110 -23 0
-111 -24 0
-130 -22 0
-131 -23 0
-132 -24 0
-139 -22 0
-140 -23 0
-141 -24 0
-58 -25 0
-59 -26 0
-60 -27 0
-61 -25 0
-62 -26 0
-63 -27 0
-52 -28 0
-53 -29 0
-54 -30 0
-61 -28 0
-62 -29 0
-63 -30 0
-64 -28 0
-65 -29 0
-66 -30 0
-124 -28 0
-125 -29 0
-126 -30 0
-145 -28 0
-146 -29 0
-147 -30 0
-58 -31 0
-59 -32 0
-60 -33 0
-88 -31 0
-89 -32 0
-90 -33 0
-94 -31 0
-95 -32 0
-96 -33 0
-115 -31 0
-116 -32 0
-117 -33 0
-148 -31 0
-149 -32 0
-150 -33 0
-55 -34 0
-56 -35 0
-57 -36 0
-82 -34 0
-83 -35 0
-84 -36 0
-88 -34 0
-89 -35 0
-90 -36 0
-91 -34 0
-92 -35 0
-93 -36 0
-106 -34 0
-107 -35 0
-108 -36 0
-121 -34 0
-122 -35 0
-123 -36 0
-127 -34 0
-128 -35 0
-129 -36 0
-55 -37 0
-56 -38 0
-57 -39 0
-130 -37 0
-131 -38 0
-132 -39 0
-145 -37 0
-146 -38 0
-147 -39 0
-58 -40 0
-59 -41 0
-60 -42 0
-82 -40 0
-83 -41 0
-84 -42 0
-94 -40 0
-95 -41 0
-96 -42 0
-103 -40 0
-104 -41 0
-105 -42 0
-118 -40 0
-119 -41 0
-120 -42 0
-133 -40 0
-134 -41 0
-135 -42 0
-142 -40 0
-143 -41 0
-144 -42 0
-70 -43 0
-71 -44 0
-72 -45 0
-79 -43 0
-80 -44 0
-81 -45 0
-88 -43 0
-89 -44 0
-90 -45 0
-91 -43 0
-92 -44 0
-93 -45 0
-121 -43 0
-122 -44 0
-123 -45 0
-133 -43 0
-134 -44 0
-135 -45 0
-73 -46 0
-74 -47 0
-75 -48 0
-76 -46 0
-77 -47 0
-78 -48 0
-100 -46 0
-101 -47 0
-102 -48 0
-121 -46 0
-122 -47 0
-123 -48 0
-127 -46 0
-128 -47 0
-129 -48 0
-142 -46 0
-143 -47 0
-144 -48 0
-61 -49 0
-62 -50 0
-63 -51 0
-73 -49 0
-74 -50 0
-75 -51 0
-76 -49 0
-77 -50 0
-78 -51 0
-88 -49 0
-89 -50 0
-90 -51 0
-142 -49 0
-143 -50 0
-144 -51 0
-103 -52 0
-104 -53 0
-105 -54 0
-112 -52 0
-113 -53 0
-114 -54 0
-136 -52 0
-137 -53 0
-138 -54 0
-109 -55 0
-110 -56 0
-111 -57 0
-127 -55 0
-128 -56 0
-129 -57 0
-103 -58 0
-104 -59 0
-105 -60 0
-145 -58 0
-146 -59 0
-147 -60 0
-106 -61 0
-107 -62 0
-108 -63 0
-136 -61 0
-137 -62 0
-138 -63 0
-112 -64 0
-113 -65 0
-114 -66 0
-142 -64 0
-143 -65 0
-144 -66 0
-106 -67 0
-107 -68 0
-108 -69 0
-112 -67 0
-113 -68 0
-114 -69 0
-115 -67 0
-116 -68 0
-117 -69 0
-118 -67 0
-119 -68 0
-120 -69 0
-142 -70 0
-143 -71 0
-144 -72 0
-139 -73 0
-140 -74 0
-141 -75 0
-145 -73 0
-146 -74 0
-147 -75 0
-109 -76 0
-110 -77 0
-111 -78 0
-121 -76 0
-122 -77 0
-123 -78 0
-136 -76 0
-137 -77 0
-138 -78 0
-142 -76 0
-143 -77 0
-144 -78 0
-112 -79 0
-113 -80 0
-114 -81 0
-136 -79 0
-137 -80 0
-138 -81 0
-148 -79 0
-149 -80 0
-150 -81 0
-127 -85 0
-128 -86 0
-129 -87 0
-109 -88 0
-110 -89 0
-111 -90 0
-103 -91 0
-104 -92 0
-105 -93 0
-118 -91 0
-119 -92 0
-120 -93 0
-127 -91 0
-128 -92 0
-129 -93 0
-148 -91 0
-149 -92 0
-150 -93 0
-124 -94 0
-125 -95 0
-126 -96 0
-127 -94 0
-128 -95 0
-129 -96 0
-139 -94 0
-140 -95 0
-141 -96 0
-145 -94 0
-146 -95 0
-147 -96 0
-103 -97 0
-104 -98 0
-105 -99 0
-142 -97 0
-143 -98 0
-144 -99 0
